(set-info :smt-lib-version 2.6)
(set-logic QF_FPBV)
(set-option :produce-models true)
(set-info :source |Random FP created by PyMPF|)
(set-info :license |https://www.gnu.org/licenses/gpl-3.0.html|)
(set-info :category random)
(set-info :status sat)
;; fp.from.sbv(BitVec 32)
(declare-const x (_ BitVec 32))
(assert (bvsle x #b10000111000101010010010011100001))
;; x should be -2028657439

(declare-const r Float64)
(assert (= r ((_ to_fp 11 53) RTP x)))
(assert (fp.leq r (fp #b1 #b10000011101 #b1110001110101011011011000111110000000000000000000000)))
(check-sat)
(exit)
